 2D_PC    
 1.000
   19.2000007627999985    0.0000000000000000    0.0000000000000000
    0.0000000000000000   22.5200004575999984    0.0000000000000000
    0.0000000000000000    0.0000000000000000   20.0000000000000000
   P    C 
   64   64
Direct
    0.1811969373193410    0.2183585666797900    0.2677664192882868      P1
    0.0681527761806581    0.2183586936797899    0.2677655132882900      P2
    0.0561965012500597    0.1530874884239237    0.1802285097813778      P3
    0.1931525787499404    0.1530871601739240    0.1802293917813797      P4
    0.1811969373193410    0.4683585666797900    0.2677664192882868      P5
    0.0681527761806581    0.4683586936797898    0.2677655132882900      P6
    0.0561965012500597    0.4030874884239236    0.1802285097813778      P7
    0.1931525787499404    0.4030871601739240    0.1802293917813797      P8
    0.1811969373193410    0.7183585666797899    0.2677664192882868      P9
    0.0681527761806581    0.7183586936797899    0.2677655132882900     P10
    0.0561965012500597    0.6530874884239237    0.1802285097813778     P11
    0.1931525787499404    0.6530871601739241    0.1802293917813797     P12
    0.1811969373193410    0.9683585666797900    0.2677664192882868     P13
    0.0681527761806581    0.9683586936797899    0.2677655132882900     P14
    0.0561965012500597    0.9030874884239238    0.1802285097813778     P15
    0.1931525787499404    0.9030871601739242    0.1802293917813797     P16
    0.4311969373193411    0.2183585666797900    0.2677664192882868     P17
    0.3181527761806581    0.2183586936797899    0.2677655132882900     P18
    0.3061965012500596    0.1530874884239237    0.1802285097813778     P19
    0.4431525787499404    0.1530871601739240    0.1802293917813797     P20
    0.4311969373193411    0.4683585666797900    0.2677664192882868     P21
    0.3181527761806581    0.4683586936797898    0.2677655132882900     P22
    0.3061965012500596    0.4030874884239236    0.1802285097813778     P23
    0.4431525787499404    0.4030871601739240    0.1802293917813797     P24
    0.4311969373193411    0.7183585666797899    0.2677664192882868     P25
    0.3181527761806581    0.7183586936797899    0.2677655132882900     P26
    0.3061965012500596    0.6530874884239237    0.1802285097813778     P27
    0.4431525787499404    0.6530871601739241    0.1802293917813797     P28
    0.4311969373193411    0.9683585666797900    0.2677664192882868     P29
    0.3181527761806581    0.9683586936797899    0.2677655132882900     P30
    0.3061965012500596    0.9030874884239238    0.1802285097813778     P31
    0.4431525787499404    0.9030871601739242    0.1802293917813797     P32
    0.6811969373193411    0.2183585666797900    0.2677664192882868     P33
    0.5681527761806581    0.2183586936797899    0.2677655132882900     P34
    0.5561965012500597    0.1530874884239237    0.1802285097813778     P35
    0.6931525787499403    0.1530871601739240    0.1802293917813797     P36
    0.6811969373193411    0.4683585666797900    0.2677664192882868     P37
    0.5681527761806581    0.4683586936797898    0.2677655132882900     P38
    0.5561965012500597    0.4030874884239236    0.1802285097813778     P39
    0.6931525787499403    0.4030871601739240    0.1802293917813797     P40
    0.6811969373193411    0.7183585666797899    0.2677664192882868     P41
    0.5681527761806581    0.7183586936797899    0.2677655132882900     P42
    0.5561965012500597    0.6530874884239237    0.1802285097813778     P43
    0.6931525787499403    0.6530871601739241    0.1802293917813797     P44
    0.6811969373193411    0.9683585666797900    0.2677664192882868     P45
    0.5681527761806581    0.9683586936797899    0.2677655132882900     P46
    0.5561965012500597    0.9030874884239238    0.1802285097813778     P47
    0.6931525787499403    0.9030871601739242    0.1802293917813797     P48
    0.9311969373193411    0.2183585666797900    0.2677664192882868     P49
    0.8181527761806581    0.2183586936797899    0.2677655132882900     P50
    0.8061965012500596    0.1530874884239237    0.1802285097813778     P51
    0.9431525787499404    0.1530871601739240    0.1802293917813797     P52
    0.9311969373193411    0.4683585666797900    0.2677664192882868     P53
    0.8181527761806581    0.4683586936797898    0.2677655132882900     P54
    0.8061965012500596    0.4030874884239236    0.1802285097813778     P55
    0.9431525787499404    0.4030871601739240    0.1802293917813797     P56
    0.9311969373193411    0.7183585666797899    0.2677664192882868     P57
    0.8181527761806581    0.7183586936797899    0.2677655132882900     P58
    0.8061965012500596    0.6530874884239237    0.1802285097813778     P59
    0.9431525787499404    0.6530871601739241    0.1802293917813797     P60
    0.9311969373193411    0.9683585666797900    0.2677664192882868     P61
    0.8181527761806581    0.9683586936797899    0.2677655132882900     P62
    0.8061965012500596    0.9030874884239238    0.1802285097813778     P63
    0.9431525787499404    0.9030871601739242    0.1802293917813797     P64
    0.2118363786103316    0.0384858197771907    0.2338202073813633      C1
    0.0868364852675883    0.0829635826190952    0.2141850825489661      C2
    0.1625120049824118    0.0829633338690968    0.2141853685489685      C3
    0.0375121798896679    0.0384857535271914    0.2338195393813649      C4
    0.2118363786103316    0.2884858197771907    0.2338202073813633      C5
    0.0868364852675883    0.3329635826190952    0.2141850825489661      C6
    0.1625120049824118    0.3329633338690968    0.2141853685489685      C7
    0.0375121798896679    0.2884857535271914    0.2338195393813649      C8
    0.2118363786103316    0.5384858197771907    0.2338202073813633      C9
    0.0868364852675883    0.5829635826190952    0.2141850825489661     C10
    0.1625120049824118    0.5829633338690968    0.2141853685489685     C11
    0.0375121798896679    0.5384857535271914    0.2338195393813649     C12
    0.2118363786103316    0.7884858197771908    0.2338202073813633     C13
    0.0868364852675883    0.8329635826190953    0.2141850825489661     C14
    0.1625120049824118    0.8329633338690969    0.2141853685489685     C15
    0.0375121798896679    0.7884857535271914    0.2338195393813649     C16
    0.4618363786103316    0.0384858197771907    0.2338202073813633     C17
    0.3368364852675883    0.0829635826190952    0.2141850825489661     C18
    0.4125120049824118    0.0829633338690968    0.2141853685489685     C19
    0.2875121798896679    0.0384857535271914    0.2338195393813649     C20
    0.4618363786103316    0.2884858197771907    0.2338202073813633     C21
    0.3368364852675883    0.3329635826190952    0.2141850825489661     C22
    0.4125120049824118    0.3329633338690968    0.2141853685489685     C23
    0.2875121798896679    0.2884857535271914    0.2338195393813649     C24
    0.4618363786103316    0.5384858197771907    0.2338202073813633     C25
    0.3368364852675883    0.5829635826190952    0.2141850825489661     C26
    0.4125120049824118    0.5829633338690968    0.2141853685489685     C27
    0.2875121798896679    0.5384857535271914    0.2338195393813649     C28
    0.4618363786103316    0.7884858197771908    0.2338202073813633     C29
    0.3368364852675883    0.8329635826190953    0.2141850825489661     C30
    0.4125120049824118    0.8329633338690969    0.2141853685489685     C31
    0.2875121798896679    0.7884857535271914    0.2338195393813649     C32
    0.7118363786103317    0.0384858197771907    0.2338202073813633     C33
    0.5868364852675884    0.0829635826190952    0.2141850825489661     C34
    0.6625120049824118    0.0829633338690968    0.2141853685489685     C35
    0.5375121798896679    0.0384857535271914    0.2338195393813649     C36
    0.7118363786103317    0.2884858197771907    0.2338202073813633     C37
    0.5868364852675884    0.3329635826190952    0.2141850825489661     C38
    0.6625120049824118    0.3329633338690968    0.2141853685489685     C39
    0.5375121798896679    0.2884857535271914    0.2338195393813649     C40
    0.7118363786103317    0.5384858197771907    0.2338202073813633     C41
    0.5868364852675884    0.5829635826190952    0.2141850825489661     C42
    0.6625120049824118    0.5829633338690968    0.2141853685489685     C43
    0.5375121798896679    0.5384857535271914    0.2338195393813649     C44
    0.7118363786103317    0.7884858197771908    0.2338202073813633     C45
    0.5868364852675884    0.8329635826190953    0.2141850825489661     C46
    0.6625120049824118    0.8329633338690969    0.2141853685489685     C47
    0.5375121798896679    0.7884857535271914    0.2338195393813649     C48
    0.9618363786103316    0.0384858197771907    0.2338202073813633     C49
    0.8368364852675884    0.0829635826190952    0.2141850825489661     C50
    0.9125120049824117    0.0829633338690968    0.2141853685489685     C51
    0.7875121798896679    0.0384857535271914    0.2338195393813649     C52
    0.9618363786103316    0.2884858197771907    0.2338202073813633     C53
    0.8368364852675884    0.3329635826190952    0.2141850825489661     C54
    0.9125120049824117    0.3329633338690968    0.2141853685489685     C55
    0.7875121798896679    0.2884857535271914    0.2338195393813649     C56
    0.9618363786103316    0.5384858197771907    0.2338202073813633     C57
    0.8368364852675884    0.5829635826190952    0.2141850825489661     C58
    0.9125120049824117    0.5829633338690968    0.2141853685489685     C59
    0.7875121798896679    0.5384857535271914    0.2338195393813649     C60
    0.9618363786103316    0.7884858197771908    0.2338202073813633     C61
    0.8368364852675884    0.8329635826190953    0.2141850825489661     C62
    0.9125120049824117    0.8329633338690969    0.2141853685489685     C63
    0.7875121798896679    0.7884857535271914    0.2338195393813649     C64
